p cnf 15 20
-6 7 -9 0
8 1 -14 0
-5 6 -1 0
-7 -12 9 0
-8 5 -9 0
3 12 15 0
-6 -12 -10 0
8 9 -9 0
-14 4 12 0
-8 11 4 0
-5 -12 -2 0
3 -5 13 0
-15 -12 -1 0
2 3 12 0
1 11 15 0
14 -1 15 0
9 11 -9 0
-3 6 -10 0
-6 -3 -10 0
-7 12 9 0
